NAME          
ROWS
 N  OBJ
 L  c1
 L  c2
COLUMNS
    MARKER    'MARKER'                 'INTORG'
    x[1]      c1        883
    x[1]      c2        121
    x[1]      OBJ       -747
    x[2]      c1        795
    x[2]      c2        831
    x[2]      OBJ       -957
    x[3]      c1        361
    x[3]      c2        405
    x[3]      OBJ       -624
    x[4]      c1        453
    x[4]      c2        341
    x[4]      OBJ       -10
    x[5]      c1        63
    x[5]      c2        237
    x[5]      OBJ       -847
    x[6]      c1        313
    x[6]      c2        219
    x[6]      OBJ       -243
    x[7]      c1        898
    x[7]      c2        329
    x[7]      OBJ       -854
    x[8]      c1        213
    x[8]      c2        702
    x[8]      OBJ       -244
    x[9]      c1        666
    x[9]      c2        575
    x[9]      OBJ       -76
    x[10]     c1        34
    x[10]     c2        74
    x[10]     OBJ       -869
    x[11]     c1        857
    x[11]     c2        722
    x[11]     OBJ       -880
    x[12]     c1        449
    x[12]     c2        906
    x[12]     OBJ       -892
    x[13]     c1        801
    x[13]     c2        513
    x[13]     OBJ       -773
    x[14]     c1        297
    x[14]     c2        288
    x[14]     OBJ       -210
    x[15]     c1        78
    x[15]     c2        987
    x[15]     OBJ       -903
    x[16]     c1        975
    x[16]     c2        484
    x[16]     OBJ       -653
    x[17]     c1        973
    x[17]     c2        864
    x[17]     OBJ       -685
    x[18]     c1        776
    x[18]     c2        781
    x[18]     OBJ       -172
    x[19]     c1        415
    x[19]     c2        545
    x[19]     OBJ       -655
    x[20]     c1        401
    x[20]     c2        68
    x[20]     OBJ       -473
    x[21]     c1        560
    x[21]     c2        940
    x[21]     OBJ       -320
    x[22]     c1        902
    x[22]     c2        953
    x[22]     OBJ       -382
    x[23]     c1        647
    x[23]     c2        874
    x[23]     OBJ       -102
    x[24]     c1        625
    x[24]     c2        976
    x[24]     OBJ       -82
    x[25]     c1        316
    x[25]     c2        128
    x[25]     OBJ       -97
    x[26]     c1        977
    x[26]     c2        48
    x[26]     OBJ       -447
    x[27]     c1        686
    x[27]     c2        603
    x[27]     OBJ       -8
    x[28]     c1        831
    x[28]     c2        459
    x[28]     OBJ       -307
    x[29]     c1        891
    x[29]     c2        635
    x[29]     OBJ       -913
    x[30]     c1        382
    x[30]     c2        123
    x[30]     OBJ       -184
    x[31]     c1        754
    x[31]     c2        746
    x[31]     OBJ       -438
    x[32]     c1        939
    x[32]     c2        692
    x[32]     OBJ       -825
    x[33]     c1        252
    x[33]     c2        883
    x[33]     OBJ       -729
    x[34]     c1        358
    x[34]     c2        542
    x[34]     OBJ       -713
    x[35]     c1        308
    x[35]     c2        724
    x[35]     OBJ       -8
    x[36]     c1        530
    x[36]     c2        185
    x[36]     OBJ       -725
    x[37]     c1        412
    x[37]     c2        795
    x[37]     OBJ       -451
    x[38]     c1        648
    x[38]     c2        54
    x[38]     OBJ       -971
    x[39]     c1        104
    x[39]     c2        57
    x[39]     OBJ       -17
    x[40]     c1        497
    x[40]     c2        656
    x[40]     OBJ       -106
    x[41]     c1        253
    x[41]     c2        70
    x[41]     OBJ       -116
    x[42]     c1        678
    x[42]     c2        480
    x[42]     OBJ       -247
    x[43]     c1        16
    x[43]     c2        851
    x[43]     OBJ       -545
    x[44]     c1        55
    x[44]     c2        978
    x[44]     OBJ       -855
    x[45]     c1        1000
    x[45]     c2        378
    x[45]     OBJ       -973
    x[46]     c1        845
    x[46]     c2        371
    x[46]     OBJ       -774
    x[47]     c1        924
    x[47]     c2        995
    x[47]     OBJ       -44
    x[48]     c1        472
    x[48]     c2        721
    x[48]     OBJ       -762
    x[49]     c1        523
    x[49]     c2        98
    x[49]     OBJ       -359
    x[50]     c1        580
    x[50]     c2        345
    x[50]     OBJ       -438
RHS
    rhs       c1        13833
    rhs       c2        13176
RANGES
BOUNDS
 BV bounds    x[1]
 BV bounds    x[2]
 BV bounds    x[3]
 BV bounds    x[4]
 BV bounds    x[5]
 BV bounds    x[6]
 BV bounds    x[7]
 BV bounds    x[8]
 BV bounds    x[9]
 BV bounds    x[10]
 BV bounds    x[11]
 BV bounds    x[12]
 BV bounds    x[13]
 BV bounds    x[14]
 BV bounds    x[15]
 BV bounds    x[16]
 BV bounds    x[17]
 BV bounds    x[18]
 BV bounds    x[19]
 BV bounds    x[20]
 BV bounds    x[21]
 BV bounds    x[22]
 BV bounds    x[23]
 BV bounds    x[24]
 BV bounds    x[25]
 BV bounds    x[26]
 BV bounds    x[27]
 BV bounds    x[28]
 BV bounds    x[29]
 BV bounds    x[30]
 BV bounds    x[31]
 BV bounds    x[32]
 BV bounds    x[33]
 BV bounds    x[34]
 BV bounds    x[35]
 BV bounds    x[36]
 BV bounds    x[37]
 BV bounds    x[38]
 BV bounds    x[39]
 BV bounds    x[40]
 BV bounds    x[41]
 BV bounds    x[42]
 BV bounds    x[43]
 BV bounds    x[44]
 BV bounds    x[45]
 BV bounds    x[46]
 BV bounds    x[47]
 BV bounds    x[48]
 BV bounds    x[49]
 BV bounds    x[50]
ENDATA
